param n := 9;
param m := 8;

set X[1] := 2;
set X[2] := 3;
set X[3] := 4;
set X[4] := 1 2 3 4;
set X[5] := 6 7 8 9;
set X[6] := 7;
set X[7] := 8;
set X[8] := 9;

set Y[1] := 1;
set Y[2] := 1;
set Y[3] := 1;
set Y[4] := 5;
set Y[5] := 5;
set Y[6] := 6;
set Y[7] := 6;
set Y[8] := 6;


param invertible := 
1 1
2 1
3 1
4 1
5 1
6 1
7 1
8 1;

option solver cplex;
solve;
display inverted;
display has_in;
display has_out;
display _solve_user_time;